c Random generated cnf formula, satisfiable: true
p cnf 10 50
-2 7 -1 0
4 -5 3 0
-6 -2 3 0
-4 -8 9 0
-3 -7 -4 0
5 -1 -2 0
-4 -3 1 0
5 -10 2 0
7 6 10 0
-5 -6 3 0
-6 -8 5 0
-9 6 8 0
7 -9 -2 0
-6 -1 4 0
-4 -5 3 0
3 1 -8 0
1 3 6 0
6 -8 -4 0
-1 5 -7 0
4 5 -7 0
-3 7 1 0
-9 2 5 0
6 1 8 0
7 -5 -6 0
9 5 -10 0
-4 8 -2 0
-1 6 -9 0
-2 -10 -4 0
-3 9 -6 0
10 -8 -3 0
-1 -2 -8 0
4 9 -10 0
-10 -4 -3 0
8 5 6 0
6 -2 -1 0
-9 -4 6 0
10 -8 4 0
-10 -2 3 0
-7 -8 -10 0
-4 8 -1 0
-2 -9 3 0
2 -9 6 0
10 -6 9 0
8 2 -3 0
8 -4 9 0
-2 -1 -6 0
-10 1 9 0
-4 -7 -3 0
-7 -10 3 0
-1 9 -3 0
